20	5
0	11	9	5	6	8	7	2	3	20	1	10	4
1	1	13
2	1	19
3	1	13
4	1	18
5	2	12	15
6	1	16
7	3	13	14	15
8	2	14	17
9	2	18	12
10	2	11	15
11	2	17	16
12	1	11
13	1	11
14	1	21
15	1	21
16	1	21
17	1	21
18	1	21
19	1	21
20	1	21
21	0
0	0	0	0	0	0	0
1	1	0	0	0	0	4
2	6	4	3	0	3	3
3	9	0	3	2	4	0
4	4	5	4	1	3	5
5	2	2	5	2	2	5
6	7	2	2	3	1	5
7	9	0	5	0	0	1
8	9	5	4	3	5	0
9	7	1	3	4	1	2
10	8	2	3	4	3	2
11	1	1	4	3	0	3
12	9	1	5	5	5	1
13	2	0	1	0	3	2
14	2	1	0	5	2	0
15	9	2	4	0	2	5
16	1	2	3	4	2	0
17	8	3	0	2	5	5
18	6	0	3	1	4	0
19	7	0	3	2	0	0
20	1	2	1	4	0	2
21	0	0	0	0	0	0
9	11	8	9	9
